50 4
84 15 90 100 10 24 51 37 65 17 85 55 39 13 12 11 78 88 55 53 36 37 10 76 67 48 43 59 71 45 67 47 68 40 97 98 27 90 53 68 73 11 35 80 29 90 52 89 44 50
10 10 29 73 93 34 32 39 19 97 21 74 45 22 49 88 60 21 32 77 86 76 97 23 43 39 76 77 14 88 53 65 43 79 98 82 65 68 42 57 16 19 19 94 11 92 18 25 36 95
18 63 38 47 87 42 61 11 48 63 85 60 29 58 85 32 61 59 16 47 65 11 89 84 94 18 76 24 59 90 51 51 41 13 22 81 13 54 70 47 75 77 51 83 70 86 17 43 53 11
46 13 59 92 20 60 93 16 49 71 41 89 22 64 21 16 64 19 29 21 91 90 28 87 61 76 46 28 24 38 58 87 30 41 34 48 66 73 38 27 87 28 16 96 69 87 61 55 78 78
